
******************************************************************************
This program contains Ipopt, a library for large-scale nonlinear optimization.
 Ipopt is released as open source code under the Eclipse Public License (EPL).
         For more information visit https://github.com/coin-or/Ipopt
******************************************************************************

This is Ipopt version 3.13.4, running with linear solver mumps.
NOTE: Other linear solvers might be more efficient (see Ipopt documentation).

Number of nonzeros in equality constraint Jacobian...:        0
Number of nonzeros in inequality constraint Jacobian.:      810
Number of nonzeros in Lagrangian Hessian.............:        0

Total number of variables............................:       18
                     variables with only lower bounds:        0
                variables with lower and upper bounds:       18
                     variables with only upper bounds:        0
Total number of equality constraints.................:        0
Total number of inequality constraints...............:       45
        inequality constraints with only lower bounds:        0
   inequality constraints with lower and upper bounds:        0
        inequality constraints with only upper bounds:       45

iter    objective    inf_pr   inf_du lg(mu)  ||d||  lg(rg) alpha_du alpha_pr  ls
   0 -4.2478309e+03 0.00e+00 1.87e+00   0.0 0.00e+00    -  0.00e+00 0.00e+00   0
   1 -4.2796244e+03 0.00e+00 2.99e+00   0.8 6.18e+00    -  9.91e-01 1.00e+00f  1
   2 -4.5824090e+03 0.00e+00 2.88e+00   0.6 1.94e+02    -  7.70e-01 1.00e+00f  1
   3 -4.4824523e+03 0.00e+00 5.41e+00  -5.3 2.14e+02    -  4.02e-01 7.76e-01h  1
   4 -4.8167808e+03 1.21e+00 4.04e+00   0.1 7.84e+01    -  1.00e+00 6.32e-01f  1
   5 -4.9332834e+03 0.00e+00 1.28e+00  -0.2 6.01e+01    -  5.08e-01 1.00e+00f  1
   6 -4.9603756e+03 0.00e+00 6.47e-01  -1.1 2.15e+01    -  1.00e+00 7.81e-01f  1
   7 -4.9752693e+03 9.28e-02 4.88e-01  -2.0 3.65e+01    -  9.97e-01 3.42e-01f  1
   8 -4.9506025e+03 0.00e+00 2.04e+00  -1.3 4.07e+01    -  1.00e+00 1.00e+00H  1
   9 -4.9857519e+03 7.04e-02 4.87e-01  -2.0 2.13e+01    -  1.00e+00 1.00e+00f  1
iter    objective    inf_pr   inf_du lg(mu)  ||d||  lg(rg) alpha_du alpha_pr  ls
  10 -4.9941548e+03 4.16e-04 9.07e-01  -2.6 7.49e+00    -  1.00e+00 9.97e-01f  1
  11 -5.0137392e+03 1.12e-02 7.51e-01  -3.4 1.64e+01    -  1.00e+00 1.00e+00f  1
  12 -5.0194923e+03 1.14e-02 5.24e-01  -3.2 3.61e+02    -  1.00e+00 3.22e-02f  4
  13 -5.0240071e+03 3.29e-03 4.19e-01  -4.0 7.64e+00    -  1.00e+00 1.00e+00f  1
  14 -5.0159789e+03 1.20e-04 1.10e+00  -4.5 4.51e+01    -  1.00e+00 1.00e+00H  1
  15 -5.0324581e+03 7.61e-02 3.17e-01  -5.0 1.67e+01    -  1.00e+00 1.00e+00f  1
  16 -5.0368648e+03 2.34e-02 4.48e-01  -5.5 5.53e+00    -  1.00e+00 1.00e+00f  1
  17 -5.0459016e+03 6.57e-02 6.41e-01  -6.7 1.04e+01    -  1.00e+00 1.00e+00f  1
  18 -5.0648358e+03 1.50e-01 8.91e-01  -7.7 1.59e+01    -  1.00e+00 1.00e+00f  1
  19 -5.0668897e+03 9.82e-04 8.90e-01  -9.1 9.34e-01    -  1.00e+00 1.00e+00f  1
iter    objective    inf_pr   inf_du lg(mu)  ||d||  lg(rg) alpha_du alpha_pr  ls
  20 -5.0690388e+03 1.02e-03 8.07e-01 -10.8 9.74e-01    -  1.00e+00 1.00e+00f  1
  21 -5.0712590e+03 1.07e-03 8.29e-01 -11.0 1.01e+00    -  1.00e+00 1.00e+00f  1
  22 -5.0735628e+03 1.13e-03 8.52e-01 -11.0 1.05e+00    -  1.00e+00 1.00e+00f  1
  23 -5.0759592e+03 1.19e-03 8.73e-01 -11.0 1.08e+00    -  1.00e+00 1.00e+00f  1
  24 -5.0784545e+03 1.25e-03 8.94e-01 -11.0 1.11e+00    -  1.00e+00 1.00e+00f  1
  25 -5.0810509e+03 1.30e-03 9.13e-01 -11.0 1.15e+00    -  1.00e+00 1.00e+00f  1
  26 -5.0837464e+03 1.35e-03 9.30e-01  -9.0 1.18e+00    -  7.51e-01 1.00e+00f  1
  27 -5.0865339e+03 9.69e-04 9.44e-01  -7.1 1.21e+00    -  6.15e-03 1.00e+00f  1
  28 -5.0894034e+03 5.44e-05 9.80e-01  -7.2 1.21e+00    -  1.00e+00 1.00e+00f  1
  29 -5.0923367e+03 5.73e-05 9.96e-01  -6.9 1.24e+00    -  1.00e+00 1.00e+00f  1
iter    objective    inf_pr   inf_du lg(mu)  ||d||  lg(rg) alpha_du alpha_pr  ls
  30 -5.0953093e+03 6.05e-05 1.00e+00  -8.3 1.27e+00    -  1.00e+00 1.00e+00f  1
  31 -5.0982912e+03 6.37e-05 1.01e+00  -9.0 1.28e+00    -  1.00e+00 1.00e+00f  1
  32 -5.1314853e+03 4.33e-02 7.51e-01  -7.0 2.59e+04    -  9.35e-05 1.16e-03f  3
  33 -5.1383377e+03 1.23e-01 4.32e-01  -7.0 6.63e+00    -  1.00e+00 7.95e-01f  1
  34 -5.1391967e+03 1.32e-01 3.99e-01  -5.1 4.95e+00    -  1.00e+00 1.79e-01f  1
  35 -5.1498651e+03 3.65e-01 9.06e-01  -4.0 3.35e+01    -  1.00e+00 1.00e+00f  1
  36 -5.0664485e+03 9.28e-04 3.04e+00  -4.2 7.04e+01    -  1.00e+00 1.00e+00H  1
  37 -5.1553317e+03 2.13e-01 3.86e-01  -4.3 6.37e+01    -  1.00e+00 1.00e+00f  1
  38 -5.1542439e+03 2.87e-02 5.77e-01  -5.0 1.16e+01    -  1.00e+00 1.00e+00h  1
  39 -5.1585987e+03 6.05e-03 1.17e-01  -5.3 8.54e+00    -  1.00e+00 1.00e+00f  1
iter    objective    inf_pr   inf_du lg(mu)  ||d||  lg(rg) alpha_du alpha_pr  ls
  40 -5.1590671e+03 1.66e-03 6.67e-02  -6.8 3.44e+00    -  1.00e+00 1.00e+00f  1
  41 -5.1588545e+03 3.20e-05 2.78e-01  -8.1 8.90e+00    -  1.00e+00 1.00e+00H  1
  42 -5.1597535e+03 3.16e-02 2.57e-01  -9.1 8.66e+00    -  1.00e+00 1.00e+00f  1
  43 -5.1602374e+03 4.73e-03 2.13e-01  -9.5 4.74e+00    -  1.00e+00 1.00e+00f  1
  44 -5.1603067e+03 4.59e-04 1.60e-01 -11.0 2.59e+00    -  1.00e+00 1.00e+00f  1
  45 -5.1604677e+03 1.28e-03 2.31e-02 -10.7 1.79e+00    -  1.00e+00 1.00e+00f  1
  46 -5.1605030e+03 1.10e-03 1.72e-02 -11.0 1.94e+00    -  1.00e+00 1.00e+00h  1
  47 -5.1594432e+03 7.15e-06 2.98e-01 -11.0 1.11e+01    -  1.00e+00 1.00e+00H  1
  48 -5.1605570e+03 1.88e-02 3.85e-02 -11.0 8.20e+00    -  1.00e+00 1.00e+00f  1
  49 -5.1602832e+03 2.67e-04 1.80e-01 -11.0 2.72e+00    -  1.00e+00 1.00e+00h  1
iter    objective    inf_pr   inf_du lg(mu)  ||d||  lg(rg) alpha_du alpha_pr  ls
  50 -5.1605438e+03 3.34e-04 8.12e-03 -11.0 2.37e+00    -  1.00e+00 1.00e+00f  1

Number of Iterations....: 50

                                   (scaled)                 (unscaled)
Objective...............:  -5.1605437647520457e+03   -5.1605437647520457e+03
Dual infeasibility......:   8.1174812515785628e-03    8.1174812515785628e-03
Constraint violation....:   3.3426281037438662e-04    3.3426281037438662e-04
Complementarity.........:   1.0000230935650966e-11    1.0000230935650966e-11
Overall NLP error.......:   8.1174812515785628e-03    8.1174812515785628e-03


Number of objective function evaluations             = 64
Number of objective gradient evaluations             = 51
Number of equality constraint evaluations            = 0
Number of inequality constraint evaluations          = 64
Number of equality constraint Jacobian evaluations   = 0
Number of inequality constraint Jacobian evaluations = 51
Number of Lagrangian Hessian evaluations             = 0
Total CPU secs in IPOPT (w/o function evaluations)   =      7.564
Total CPU secs in NLP function evaluations           =      0.719

EXIT: Maximum Number of Iterations Exceeded.
